Route #1: 40 41 22 74 75 56 72 21
Route #2: 99 59 96 94 13
Route #3: 53 26 4 25 55 24 54 12
Route #4: 78 34 35 66 20 70 31
Route #5: 27 0 92 45 47 36 64 63 11 62 0 76 79 81 9 51 0 6 95 97 87 43 57 2 58 0 98 37 100 91 85 93
Route #6: 15 42 14 38 44 16 61 0 5 84 86 17 83 60 89
Route #7: 28 29 33 71 65 30 69 0 18 8 46 48 82 7 52
Route #8: 39 67 23 73 0 88 19 49 90 32 10 0 1 50 3 77 68 80
Cost: 13235
Optimal: True
